# vtk DataFile Version 3.0
vtk output
ASCII
DATASET UNSTRUCTURED_GRID
FIELD FieldData 2
TIME 1 1 double
0.000991136
CYCLE 1 1 int
0
POINTS 4 float
0 0 0
0 0.1 0
0 0.1 0.1
0 0 0.1

CELLS 1 5
4 0 1 2 3

CELL_TYPES 1
9

POINT_DATA 4
SCALARS NODE_ID int 1
LOOKUP_TABLE default
1
2
4
3

SCALARS Nodal_Pressure float 1
LOOKUP_TABLE default
0
0
0
0

SCALARS Nodal_Temperature float 1
LOOKUP_TABLE default
0
0
0
0

VECTORS Velocity float
0 0 0
0 0 0
0 0 0
0 0 0

VECTORS Displacement float
0 0 0
0 0 0
0 0 0
0 0 0

VECTORS Acceleration float
0 0 0
0 0 0
0 0 0
0 0 0

VECTORS Contact_Forces float
0 0 0
0 0 0
0 0 0
0 0 0

VECTORS Internal_Forces float
0 0 0
0 0 0
0 0 0
0 0 0

VECTORS External_Forces float
0 0 0
0 0 0
0 0 0
0 0 0

VECTORS Sect.RBY,Wall_F. float
0 0 0
0 0 0
0 0 0
0 0 0

VECTORS Sect.RBY_Moments float
0 0 0
0 0 0
0 0 0
0 0 0

VECTORS Reaction_Forces float
0 0 0
0 0 0
0 0 0
0 0 0

CELL_DATA 1
SCALARS ELEMENT_ID int 1
LOOKUP_TABLE default
1

SCALARS PART_ID int 1
LOOKUP_TABLE default
1

SCALARS EROSION_STATUS int 1
LOOKUP_TABLE default
1

SCALARS 2DELEM_Plastic_Strain float 1
LOOKUP_TABLE default
0

SCALARS 2DELEM_Specific_Energy float 1
LOOKUP_TABLE default
0

SCALARS 2DELEM_Thickness float 1
LOOKUP_TABLE default
0

SCALARS 2DELEM_Plastic_Strain_Upper float 1
LOOKUP_TABLE default
0

SCALARS 2DELEM_Plastic_Strain_Lower float 1
LOOKUP_TABLE default
0

TENSORS 2DELEM_Stress_(upper) float
0 0 0 
0 0 0 
0 0 0 

TENSORS 2DELEM_Stress_(lower) float
0 0 0 
0 0 0 
0 0 0 

